c Maximum weighted clique instances generated from exactcolors.
c cutoff: 2147483.
c A clique of value > scalef (2147483) defines an improving stable sets for coloring.
p edge 234 0
n 1 2147482
n 2 2147482
n 3 2147482
n 4 2147482
n 5 2147482
n 6 2147483
n 7 2147482
n 8 2147482
n 9 2147482
n 10 2147482
n 11 2147482
n 12 2147482
n 13 2147482
n 14 2147482
n 15 2147482
n 16 2147482
n 17 2147482
n 18 2147482
n 19 2147482
n 20 2147482
n 21 2147483
n 22 2147483
n 23 2147482
n 24 2147482
n 25 2147482
n 26 2147482
n 27 2147482
n 28 2147482
n 29 2147482
n 30 2147482
n 31 2147482
n 32 2147482
n 33 2147482
n 34 2147482
n 35 2147482
n 36 2147482
n 37 2147482
n 38 2147482
n 39 2147483
n 40 2147482
n 41 2147482
n 42 2147482
n 43 2147483
n 44 2147482
n 45 2147482
n 46 2147482
n 47 2147482
n 48 2147482
n 49 2147482
n 50 2147482
n 51 2147482
n 52 2147482
n 53 2147482
n 54 2147482
n 55 2147482
n 56 2147482
n 57 2147482
n 58 2147482
n 59 2147482
n 60 2147482
n 61 2147482
n 62 2147482
n 63 2147482
n 64 2147482
n 65 2147482
n 66 2147482
n 67 2147482
n 68 2147482
n 69 2147482
n 70 2147482
n 71 2147482
n 72 2147482
n 73 2147482
n 74 2147483
n 75 2147483
n 76 2147482
n 77 2147482
n 78 2147482
n 79 2147482
n 80 2147482
n 81 2147482
n 82 2147482
n 83 2147482
n 84 2147483
n 85 2147483
n 86 2147482
n 87 2147482
n 88 2147482
n 89 2147482
n 90 2147482
n 91 2147482
n 92 2147482
n 93 2147482
n 94 2147482
n 95 2147482
n 96 2147482
n 97 2147482
n 98 2147482
n 99 2147482
n 100 2147482
n 101 2147482
n 102 2147482
n 103 2147482
n 104 2147482
n 105 2147482
n 106 2147482
n 107 2147482
n 108 2147482
n 109 2147482
n 110 2147482
n 111 2147482
n 112 2147482
n 113 2147482
n 114 2147482
n 115 2147482
n 116 2147482
n 117 2147482
n 118 2147482
n 119 2147482
n 120 2147482
n 121 2147482
n 122 2147482
n 123 2147482
n 124 2147482
n 125 2147483
n 126 2147482
n 127 2147482
n 128 2147482
n 129 2147482
n 130 2147482
n 131 2147482
n 132 2147482
n 133 2147482
n 134 2147482
n 135 2147482
n 136 2147482
n 137 2147482
n 138 2147482
n 139 2147482
n 140 2147482
n 141 2147482
n 142 2147482
n 143 2147483
n 144 2147482
n 145 2147482
n 146 2147482
n 147 2147482
n 148 2147482
n 149 2147482
n 150 2147482
n 151 2147482
n 152 2147482
n 153 2147482
n 154 2147482
n 155 2147483
n 156 2147483
n 157 2147483
n 158 2147482
n 159 2147482
n 160 2147482
n 161 2147482
n 162 2147482
n 163 2147482
n 164 2147483
n 165 2147482
n 166 2147482
n 167 2147482
n 168 2147482
n 169 2147483
n 170 2147482
n 171 2147482
n 172 2147482
n 173 2147482
n 174 2147482
n 175 2147482
n 176 2147482
n 177 2147483
n 178 2147482
n 179 2147482
n 180 2147482
n 181 2147482
n 182 2147482
n 183 2147482
n 184 2147483
n 185 2147482
n 186 2147482
n 187 2147482
n 188 2147482
n 189 2147482
n 190 2147482
n 191 2147482
n 192 2147482
n 193 2147482
n 194 2147482
n 195 2147482
n 196 2147482
n 197 2147482
n 198 2147483
n 199 2147482
n 200 2147482
n 201 2147482
n 202 2147482
n 203 2147482
n 204 2147483
n 205 2147482
n 206 2147482
n 207 2147482
n 208 2147482
n 209 2147482
n 210 2147482
n 211 2147482
n 212 2147482
n 213 2147482
n 214 2147482
n 215 2147482
n 216 2147482
n 217 2147483
n 218 2147482
n 219 2147482
n 220 2147482
n 221 2147482
n 222 2147482
n 223 2147482
n 224 2147482
n 225 2147482
n 226 2147482
n 227 2147482
n 228 2147482
n 229 2147482
n 230 2147482
n 231 2147483
n 232 2147482
n 233 2147482
n 234 2147482
